SPARKNaCl/why3-cvc5/sparknacl.adb_37_10_assert2_1.smt2
;; produced by cvc5.drv ;;
(set-logic ALL)
(set-info :smt-lib-version 2.6)
;;; generated by SMT-LIB2 driver
;;; SMT-LIB2 driver: bit-vectors, common part
;;; SMT-LIB2: integer arithmetic
(define-fun __cdiv ((x Int) (y Int)) Int (ite (>= x 0) (div x y) (- (div (- x) y))))
(define-fun __cmod ((x Int) (y Int)) Int (ite (>= x 0) (mod x y) (- (mod (- x) y))))
;; "mod"
(define-fun mod1 ((x Int) (y Int)) Int
  (ite (<= 0 y) (mod x y) (- (mod (- x) y))))

;; "pow2"
(declare-fun pow2 (Int) Int)

(declare-const two_power_size_minus_one Int)

;; "two_power_size_minus_one_val"
(assert (= two_power_size_minus_one (pow2 (- 16 1))))

;; "min"
(define-fun min ((x Int) (y Int)) Int
  (ite (<= x y) x y))

;; "max"
(define-fun max ((x Int) (y Int)) Int
  (ite (<= x y) y x))

;; "Min_r"
(assert (forall ((x Int) (y Int)) (=> (<= y x) (= (min x y) y))))

;; "Max_l"
(assert (forall ((x Int) (y Int)) (=> (<= y x) (= (max x y) x))))

;; "Min_comm"
(assert (forall ((x Int) (y Int)) (= (min x y) (min y x))))

;; "Max_comm"
(assert (forall ((x Int) (y Int)) (= (max x y) (max y x))))

;; "Min_assoc"
(assert
  (forall ((x Int) (y Int) (z Int)) (= (min (min x y) z) (min x (min y z)))))

;; "Max_assoc"
(assert
  (forall ((x Int) (y Int) (z Int)) (= (max (max x y) z) (max x (max y z)))))

(declare-sort gf16_normal_limb 0)

;; "to_rep"
(declare-fun to_rep (gf16_normal_limb) (_ BitVec 16))

;; "of_rep"
(declare-fun of_rep ((_ BitVec 16)) gf16_normal_limb)

;; "inversion_axiom"
(assert
  (forall ((x gf16_normal_limb))
    (! (= (of_rep (to_rep x)) x) :pattern ((to_rep x)) )))

;; "range_axiom"
(assert true)

;; "coerce_axiom"
(assert
  (forall ((x (_ BitVec 16)))
    (! (= (to_rep (of_rep x)) x) :pattern ((to_rep (of_rep x))) )))

(declare-sort map1 0)

;; "has_bounds"
(declare-fun has_bounds (map1
  Int
  Int) Bool)

;; "get"
(declare-fun get (map1
  Int) gf16_normal_limb)

(declare-const left map1)

(declare-const right map1)

(declare-sort gf32_any_limb 0)

;; "gf32_any_limb'int"
(declare-fun gf32_any_limbqtint (gf32_any_limb) Int)

;; "gf32_any_limb'axiom"
(assert
  (forall ((i gf32_any_limb))
    (and
      (<= (- 65536) (gf32_any_limbqtint i))
      (<= (gf32_any_limbqtint i) 132051011))))

;; "in_range"
(define-fun in_range ((x Int)) Bool
  (and (<= (- 65536) x) (<= x 132051011)))

(declare-datatypes ((gf32_any_limb__init_wrapper 0))
  (((gf32_any_limb__init_wrapperqtmk
    (rec__value gf32_any_limb)(us_attr__init Bool)))))

(declare-sort map2 0)

;; "has_bounds"
(declare-fun has_bounds1 (map2
  Int
  Int) Bool)

;; "get"
(declare-fun get1 (map2
  Int) gf32_any_limb__init_wrapper)

;; "set"
(declare-fun set (map2
  Int
  gf32_any_limb__init_wrapper) map2)

;; "set_eq"
(assert
  (forall ((a map2) (i Int) (v gf32_any_limb__init_wrapper))
    (! (= (get1 (set a i v) i) v) :pattern ((set a i v)) )))

;; "set_neq"
(assert
  (forall ((a map2) (i Int) (v gf32_any_limb__init_wrapper))
    (! (forall ((j Int))
         (! (=> (not (= i j)) (= (get1 (set a i v) j) (get1 a j))) :pattern (
         (get1
           a
           j)) :pattern ((get1 (set a i v) j)) )) :pattern ((set a i v)) )))

;; "set_has_bounds"
(assert
  (forall ((a map2) (i Int) (f Int) (l Int) (v gf32_any_limb__init_wrapper))
    (! (=>
         (and (<= f i) (<= i l))
         (=> (has_bounds1 a f l) (has_bounds1 (set a i v) f l))) :pattern (
    (has_bounds1
      (set a i v)
      f
      l)) )))

;; "to_rep"
(define-fun to_rep1 ((x gf32_any_limb)) Int
  (gf32_any_limbqtint x))

;; "of_rep"
(declare-fun of_rep1 (Int) gf32_any_limb)

;; "inversion_axiom"
(assert
  (forall ((x gf32_any_limb))
    (! (= (of_rep1 (to_rep1 x)) x) :pattern ((to_rep1 x)) )))

;; "range_axiom"
(assert
  (forall ((x gf32_any_limb))
    (! (in_range (to_rep1 x)) :pattern ((to_rep1 x)) )))

;; "coerce_axiom"
(assert
  (forall ((x Int))
    (! (=> (in_range x) (= (to_rep1 (of_rep1 x)) x)) :pattern ((to_rep1
                                                                 (of_rep1 x))) )))

;; "in_range"
(define-fun in_range1 ((x Int)) Bool
  (and (<= 0 x) (<= x 1)))

;; "in_range"
(define-fun in_range2 ((x Int)) Bool
  (and (<= 0 x) (<= x 65535)))

;; "in_range"
(define-fun in_range3 ((x Int)) Bool
  (and (<= 0 x) (<= x 131071)))

;; Goal "def'vc"
;; File "sparknacl.ads", line 450, characters 0-0
(assert
  (not
  (forall ((t Int) (carry Int) (r map2))
    (=>
      (has_bounds left 0 15)
      (=>
        (has_bounds right 0 15)
        (=>
          (in_range3 t)
          (=>
            (in_range1 carry)
            (=>
              (has_bounds1 r 0 15)
              (forall ((carry1 Int))
                (=>
                  (= carry1 0)
                  (forall ((carry2 Int) (r1 map2))
                    (=>
                      (exists ((i Int))
                        (and
                          (= i 0)
                          (ite (= (and (ite (<= 0 i) true false) (ite (<= i 15)
                                                                   true
                                                                   false)) true)
                            (exists ((o (_ BitVec 16)))
                              (and
                                (= (to_rep (get right i)) o)
                                (exists ((o1 (_ BitVec 16)))
                                  (and
                                    (= (to_rep (get left i)) o1)
                                    (exists ((t1 Int))
                                      (and
                                        (= t1 (+ (+ (bv2nat o1) (bv2nat o)) carry1))
                                        (exists ((o2 gf32_any_limb))
                                          (and
                                            (= (to_rep1 o2) (mod1 t1 65536))
                                            (exists ((r2 map2))
                                              (and
                                                (= r2 (set
                                                        r
                                                        i
                                                        (gf32_any_limb__init_wrapperqtmk
                                                          o2
                                                          true)))
                                                (exists ((carry3 Int))
                                                  (and
                                                    (= carry3 (__cdiv t1 65536))
                                                    (exists ((t2 Int) (i1 Int))
                                                      (and
                                                        (and
                                                          (forall ((j Int))
                                                            (=>
                                                              (and
                                                                (<= 0 j)
                                                                (<= j i1))
                                                              (= (us_attr__init
                                                                   (get1
                                                                    r1
                                                                    j)) true)))
                                                          (and
                                                            (forall ((j Int))
                                                              (=>
                                                                (and
                                                                  (<= 0 j)
                                                                  (<= j i1))
                                                                (in_range2
                                                                  (to_rep1
                                                                    (rec__value
                                                                    (get1
                                                                    r1
                                                                    j))))))
                                                            (and
                                                              (<= 0 carry2)
                                                              (<= carry2 1))))
                                                        (and
                                                          (= (and (ite 
                                                                    (and
                                                                    (and
                                                                    (and
                                                                    (in_range3
                                                                    t2)
                                                                    (in_range1
                                                                    carry2))
                                                                    (has_bounds1
                                                                    r1
                                                                    0
                                                                    15))
                                                                    (forall 
                                                                    ((temp___1510 Int))
                                                                    (=>
                                                                    (and
                                                                    (<= 0 temp___1510)
                                                                    (<= temp___1510 15))
                                                                    (=>
                                                                    (or
                                                                    (< 15 temp___1510)
                                                                    (or
                                                                    (< temp___1510 0)
                                                                    (< i1 temp___1510)))
                                                                    (= 
                                                                    (get1
                                                                    r1
                                                                    temp___1510) 
                                                                    (get1
                                                                    r
                                                                    temp___1510))))))
                                                                    true
                                                                    false) 
                                                          (ite (and
                                                                 (<= 0 i1)
                                                                 (<= i1 15))
                                                            true
                                                            false)) true)
                                                          (= i1 15))))))))))))))))
                            (and (= carry2 carry1) (= r1 r)))))
                      (forall ((j Int))
                        (=>
                          (and (<= 0 j) (<= j 15))
                          (<= 0 (to_rep1 (rec__value (get1 r1 j))))))))))))))))))

(check-sat)
